
  12    4
  10   10   10   10

   0   0   0   0   0   3 2 3 5 
   9  10  10  10  10   2 6 4 
   7  10  10  10  10   1 4 
   7  10  10  10  10   2 8 7 
   1  10  10  10  10   1 6 
   6  10  10  10  10   3 11 10 8 
   8  10  10  10  10   3 11 10 9 
   9  10  10  10  10   1 9 
   2  10  10  10  10   1 12
   9  10  10  10  10   1 12
   3  10  10  10  10   1 12
   0   0   0   0   0   0 
